num_bands         = 27
num_wann          =  9  ! set to NBANDS by VASP
exclude_bands     = 1-3, !13-target
spinors           = .false.

#use_bloch_phases = .true.
#site_symmetry     = .true.
#symmetrize_eps    = 1.0e-06

num_iter           = 0
dis_num_iter       = 0

!dis_win_min       = -0.5
!dis_win_max       = 10
!dis_froz_min      = 0.0
!dis_froz_max      = 8
!dis_num_iter      = 10000
!dis_conv_tol      = 1.0e-10

begin projections
Te:px;py;pz
end projections

bands_plot   = .true.
write_hr     = .true.
write_tb     = .true.
wannier_plot = .true.
bands_num_points = 200
bands_plot_format gnuplot


begin unit_cell_cart
Ang
     4.4580000     0.0000000     0.0000000
    -2.2290001     3.8607414     0.0000000
     0.0000000     0.0000000     5.9250000
end unit_cell_cart

begin atoms_frac
Te       0.2740000     0.0000000     0.3333333333333
Te       0.7260000     0.7260000     0.0000000000000
Te       0.0000000     0.2740000     0.6666666666666
end atoms_frac

begin kpoint_path
A 0.000000000000000  0.000000000000000  0.500000000000000  G 0.000000000000000  0.000000000000000  0.000000000000000
G 0.000000000000000  0.000000000000000  0.000000000000000  H 0.333333333333333  0.333333333333333  0.500000000000000
H 0.333333333333333  0.333333333333333  0.500000000000000  A 0.000000000000000  0.000000000000000  0.500000000000000
A 0.000000000000000  0.000000000000000  0.500000000000000  L 0.500000000000000  0.000000000000000  0.500000000000000
L 0.500000000000000  0.000000000000000  0.500000000000000  H 0.333333333333333  0.333333333333333  0.500000000000000
H 0.333333333333333  0.333333333333333  0.500000000000000  K 0.333333333333333  0.333333333333333  0.000000000000000
K 0.333333333333333  0.333333333333333  0.000000000000000  G 0.000000000000000  0.000000000000000  0.000000000000000
G 0.000000000000000  0.000000000000000  0.000000000000000  M 0.500000000000000  0.000000000000000  0.000000000000000
M 0.500000000000000  0.000000000000000  0.000000000000000  K 0.333333333333333  0.333333333333333  0.000000000000000
end kpoint_path


mp_grid = 15 15 15


begin kpoints
  0.00000000  0.00000000  0.00000000
  0.00000000  0.00000000  0.06666667
  0.00000000  0.00000000  0.13333333
  0.00000000  0.00000000  0.20000000
  0.00000000  0.00000000  0.26666667
  0.00000000  0.00000000  0.33333333
  0.00000000  0.00000000  0.40000000
  0.00000000  0.00000000  0.46666667
  0.00000000  0.00000000  0.53333333
  0.00000000  0.00000000  0.60000000
  0.00000000  0.00000000  0.66666667
  0.00000000  0.00000000  0.73333333
  0.00000000  0.00000000  0.80000000
  0.00000000  0.00000000  0.86666667
  0.00000000  0.00000000  0.93333333
  0.00000000  0.06666667  0.00000000
  0.00000000  0.06666667  0.06666667
  0.00000000  0.06666667  0.13333333
  0.00000000  0.06666667  0.20000000
  0.00000000  0.06666667  0.26666667
  0.00000000  0.06666667  0.33333333
  0.00000000  0.06666667  0.40000000
  0.00000000  0.06666667  0.46666667
  0.00000000  0.06666667  0.53333333
  0.00000000  0.06666667  0.60000000
  0.00000000  0.06666667  0.66666667
  0.00000000  0.06666667  0.73333333
  0.00000000  0.06666667  0.80000000
  0.00000000  0.06666667  0.86666667
  0.00000000  0.06666667  0.93333333
  0.00000000  0.13333333  0.00000000
  0.00000000  0.13333333  0.06666667
  0.00000000  0.13333333  0.13333333
  0.00000000  0.13333333  0.20000000
  0.00000000  0.13333333  0.26666667
  0.00000000  0.13333333  0.33333333
  0.00000000  0.13333333  0.40000000
  0.00000000  0.13333333  0.46666667
  0.00000000  0.13333333  0.53333333
  0.00000000  0.13333333  0.60000000
  0.00000000  0.13333333  0.66666667
  0.00000000  0.13333333  0.73333333
  0.00000000  0.13333333  0.80000000
  0.00000000  0.13333333  0.86666667
  0.00000000  0.13333333  0.93333333
  0.00000000  0.20000000  0.00000000
  0.00000000  0.20000000  0.06666667
  0.00000000  0.20000000  0.13333333
  0.00000000  0.20000000  0.20000000
  0.00000000  0.20000000  0.26666667
  0.00000000  0.20000000  0.33333333
  0.00000000  0.20000000  0.40000000
  0.00000000  0.20000000  0.46666667
  0.00000000  0.20000000  0.53333333
  0.00000000  0.20000000  0.60000000
  0.00000000  0.20000000  0.66666667
  0.00000000  0.20000000  0.73333333
  0.00000000  0.20000000  0.80000000
  0.00000000  0.20000000  0.86666667
  0.00000000  0.20000000  0.93333333
  0.00000000  0.26666667  0.00000000
  0.00000000  0.26666667  0.06666667
  0.00000000  0.26666667  0.13333333
  0.00000000  0.26666667  0.20000000
  0.00000000  0.26666667  0.26666667
  0.00000000  0.26666667  0.33333333
  0.00000000  0.26666667  0.40000000
  0.00000000  0.26666667  0.46666667
  0.00000000  0.26666667  0.53333333
  0.00000000  0.26666667  0.60000000
  0.00000000  0.26666667  0.66666667
  0.00000000  0.26666667  0.73333333
  0.00000000  0.26666667  0.80000000
  0.00000000  0.26666667  0.86666667
  0.00000000  0.26666667  0.93333333
  0.00000000  0.33333333  0.00000000
  0.00000000  0.33333333  0.06666667
  0.00000000  0.33333333  0.13333333
  0.00000000  0.33333333  0.20000000
  0.00000000  0.33333333  0.26666667
  0.00000000  0.33333333  0.33333333
  0.00000000  0.33333333  0.40000000
  0.00000000  0.33333333  0.46666667
  0.00000000  0.33333333  0.53333333
  0.00000000  0.33333333  0.60000000
  0.00000000  0.33333333  0.66666667
  0.00000000  0.33333333  0.73333333
  0.00000000  0.33333333  0.80000000
  0.00000000  0.33333333  0.86666667
  0.00000000  0.33333333  0.93333333
  0.00000000  0.40000000  0.00000000
  0.00000000  0.40000000  0.06666667
  0.00000000  0.40000000  0.13333333
  0.00000000  0.40000000  0.20000000
  0.00000000  0.40000000  0.26666667
  0.00000000  0.40000000  0.33333333
  0.00000000  0.40000000  0.40000000
  0.00000000  0.40000000  0.46666667
  0.00000000  0.40000000  0.53333333
  0.00000000  0.40000000  0.60000000
  0.00000000  0.40000000  0.66666667
  0.00000000  0.40000000  0.73333333
  0.00000000  0.40000000  0.80000000
  0.00000000  0.40000000  0.86666667
  0.00000000  0.40000000  0.93333333
  0.00000000  0.46666667  0.00000000
  0.00000000  0.46666667  0.06666667
  0.00000000  0.46666667  0.13333333
  0.00000000  0.46666667  0.20000000
  0.00000000  0.46666667  0.26666667
  0.00000000  0.46666667  0.33333333
  0.00000000  0.46666667  0.40000000
  0.00000000  0.46666667  0.46666667
  0.00000000  0.46666667  0.53333333
  0.00000000  0.46666667  0.60000000
  0.00000000  0.46666667  0.66666667
  0.00000000  0.46666667  0.73333333
  0.00000000  0.46666667  0.80000000
  0.00000000  0.46666667  0.86666667
  0.00000000  0.46666667  0.93333333
  0.00000000  0.53333333  0.00000000
  0.00000000  0.53333333  0.06666667
  0.00000000  0.53333333  0.13333333
  0.00000000  0.53333333  0.20000000
  0.00000000  0.53333333  0.26666667
  0.00000000  0.53333333  0.33333333
  0.00000000  0.53333333  0.40000000
  0.00000000  0.53333333  0.46666667
  0.00000000  0.53333333  0.53333333
  0.00000000  0.53333333  0.60000000
  0.00000000  0.53333333  0.66666667
  0.00000000  0.53333333  0.73333333
  0.00000000  0.53333333  0.80000000
  0.00000000  0.53333333  0.86666667
  0.00000000  0.53333333  0.93333333
  0.00000000  0.60000000  0.00000000
  0.00000000  0.60000000  0.06666667
  0.00000000  0.60000000  0.13333333
  0.00000000  0.60000000  0.20000000
  0.00000000  0.60000000  0.26666667
  0.00000000  0.60000000  0.33333333
  0.00000000  0.60000000  0.40000000
  0.00000000  0.60000000  0.46666667
  0.00000000  0.60000000  0.53333333
  0.00000000  0.60000000  0.60000000
  0.00000000  0.60000000  0.66666667
  0.00000000  0.60000000  0.73333333
  0.00000000  0.60000000  0.80000000
  0.00000000  0.60000000  0.86666667
  0.00000000  0.60000000  0.93333333
  0.00000000  0.66666667  0.00000000
  0.00000000  0.66666667  0.06666667
  0.00000000  0.66666667  0.13333333
  0.00000000  0.66666667  0.20000000
  0.00000000  0.66666667  0.26666667
  0.00000000  0.66666667  0.33333333
  0.00000000  0.66666667  0.40000000
  0.00000000  0.66666667  0.46666667
  0.00000000  0.66666667  0.53333333
  0.00000000  0.66666667  0.60000000
  0.00000000  0.66666667  0.66666667
  0.00000000  0.66666667  0.73333333
  0.00000000  0.66666667  0.80000000
  0.00000000  0.66666667  0.86666667
  0.00000000  0.66666667  0.93333333
  0.00000000  0.73333333  0.00000000
  0.00000000  0.73333333  0.06666667
  0.00000000  0.73333333  0.13333333
  0.00000000  0.73333333  0.20000000
  0.00000000  0.73333333  0.26666667
  0.00000000  0.73333333  0.33333333
  0.00000000  0.73333333  0.40000000
  0.00000000  0.73333333  0.46666667
  0.00000000  0.73333333  0.53333333
  0.00000000  0.73333333  0.60000000
  0.00000000  0.73333333  0.66666667
  0.00000000  0.73333333  0.73333333
  0.00000000  0.73333333  0.80000000
  0.00000000  0.73333333  0.86666667
  0.00000000  0.73333333  0.93333333
  0.00000000  0.80000000  0.00000000
  0.00000000  0.80000000  0.06666667
  0.00000000  0.80000000  0.13333333
  0.00000000  0.80000000  0.20000000
  0.00000000  0.80000000  0.26666667
  0.00000000  0.80000000  0.33333333
  0.00000000  0.80000000  0.40000000
  0.00000000  0.80000000  0.46666667
  0.00000000  0.80000000  0.53333333
  0.00000000  0.80000000  0.60000000
  0.00000000  0.80000000  0.66666667
  0.00000000  0.80000000  0.73333333
  0.00000000  0.80000000  0.80000000
  0.00000000  0.80000000  0.86666667
  0.00000000  0.80000000  0.93333333
  0.00000000  0.86666667  0.00000000
  0.00000000  0.86666667  0.06666667
  0.00000000  0.86666667  0.13333333
  0.00000000  0.86666667  0.20000000
  0.00000000  0.86666667  0.26666667
  0.00000000  0.86666667  0.33333333
  0.00000000  0.86666667  0.40000000
  0.00000000  0.86666667  0.46666667
  0.00000000  0.86666667  0.53333333
  0.00000000  0.86666667  0.60000000
  0.00000000  0.86666667  0.66666667
  0.00000000  0.86666667  0.73333333
  0.00000000  0.86666667  0.80000000
  0.00000000  0.86666667  0.86666667
  0.00000000  0.86666667  0.93333333
  0.00000000  0.93333333  0.00000000
  0.00000000  0.93333333  0.06666667
  0.00000000  0.93333333  0.13333333
  0.00000000  0.93333333  0.20000000
  0.00000000  0.93333333  0.26666667
  0.00000000  0.93333333  0.33333333
  0.00000000  0.93333333  0.40000000
  0.00000000  0.93333333  0.46666667
  0.00000000  0.93333333  0.53333333
  0.00000000  0.93333333  0.60000000
  0.00000000  0.93333333  0.66666667
  0.00000000  0.93333333  0.73333333
  0.00000000  0.93333333  0.80000000
  0.00000000  0.93333333  0.86666667
  0.00000000  0.93333333  0.93333333
  0.06666667  0.00000000  0.00000000
  0.06666667  0.00000000  0.06666667
  0.06666667  0.00000000  0.13333333
  0.06666667  0.00000000  0.20000000
  0.06666667  0.00000000  0.26666667
  0.06666667  0.00000000  0.33333333
  0.06666667  0.00000000  0.40000000
  0.06666667  0.00000000  0.46666667
  0.06666667  0.00000000  0.53333333
  0.06666667  0.00000000  0.60000000
  0.06666667  0.00000000  0.66666667
  0.06666667  0.00000000  0.73333333
  0.06666667  0.00000000  0.80000000
  0.06666667  0.00000000  0.86666667
  0.06666667  0.00000000  0.93333333
  0.06666667  0.06666667  0.00000000
  0.06666667  0.06666667  0.06666667
  0.06666667  0.06666667  0.13333333
  0.06666667  0.06666667  0.20000000
  0.06666667  0.06666667  0.26666667
  0.06666667  0.06666667  0.33333333
  0.06666667  0.06666667  0.40000000
  0.06666667  0.06666667  0.46666667
  0.06666667  0.06666667  0.53333333
  0.06666667  0.06666667  0.60000000
  0.06666667  0.06666667  0.66666667
  0.06666667  0.06666667  0.73333333
  0.06666667  0.06666667  0.80000000
  0.06666667  0.06666667  0.86666667
  0.06666667  0.06666667  0.93333333
  0.06666667  0.13333333  0.00000000
  0.06666667  0.13333333  0.06666667
  0.06666667  0.13333333  0.13333333
  0.06666667  0.13333333  0.20000000
  0.06666667  0.13333333  0.26666667
  0.06666667  0.13333333  0.33333333
  0.06666667  0.13333333  0.40000000
  0.06666667  0.13333333  0.46666667
  0.06666667  0.13333333  0.53333333
  0.06666667  0.13333333  0.60000000
  0.06666667  0.13333333  0.66666667
  0.06666667  0.13333333  0.73333333
  0.06666667  0.13333333  0.80000000
  0.06666667  0.13333333  0.86666667
  0.06666667  0.13333333  0.93333333
  0.06666667  0.20000000  0.00000000
  0.06666667  0.20000000  0.06666667
  0.06666667  0.20000000  0.13333333
  0.06666667  0.20000000  0.20000000
  0.06666667  0.20000000  0.26666667
  0.06666667  0.20000000  0.33333333
  0.06666667  0.20000000  0.40000000
  0.06666667  0.20000000  0.46666667
  0.06666667  0.20000000  0.53333333
  0.06666667  0.20000000  0.60000000
  0.06666667  0.20000000  0.66666667
  0.06666667  0.20000000  0.73333333
  0.06666667  0.20000000  0.80000000
  0.06666667  0.20000000  0.86666667
  0.06666667  0.20000000  0.93333333
  0.06666667  0.26666667  0.00000000
  0.06666667  0.26666667  0.06666667
  0.06666667  0.26666667  0.13333333
  0.06666667  0.26666667  0.20000000
  0.06666667  0.26666667  0.26666667
  0.06666667  0.26666667  0.33333333
  0.06666667  0.26666667  0.40000000
  0.06666667  0.26666667  0.46666667
  0.06666667  0.26666667  0.53333333
  0.06666667  0.26666667  0.60000000
  0.06666667  0.26666667  0.66666667
  0.06666667  0.26666667  0.73333333
  0.06666667  0.26666667  0.80000000
  0.06666667  0.26666667  0.86666667
  0.06666667  0.26666667  0.93333333
  0.06666667  0.33333333  0.00000000
  0.06666667  0.33333333  0.06666667
  0.06666667  0.33333333  0.13333333
  0.06666667  0.33333333  0.20000000
  0.06666667  0.33333333  0.26666667
  0.06666667  0.33333333  0.33333333
  0.06666667  0.33333333  0.40000000
  0.06666667  0.33333333  0.46666667
  0.06666667  0.33333333  0.53333333
  0.06666667  0.33333333  0.60000000
  0.06666667  0.33333333  0.66666667
  0.06666667  0.33333333  0.73333333
  0.06666667  0.33333333  0.80000000
  0.06666667  0.33333333  0.86666667
  0.06666667  0.33333333  0.93333333
  0.06666667  0.40000000  0.00000000
  0.06666667  0.40000000  0.06666667
  0.06666667  0.40000000  0.13333333
  0.06666667  0.40000000  0.20000000
  0.06666667  0.40000000  0.26666667
  0.06666667  0.40000000  0.33333333
  0.06666667  0.40000000  0.40000000
  0.06666667  0.40000000  0.46666667
  0.06666667  0.40000000  0.53333333
  0.06666667  0.40000000  0.60000000
  0.06666667  0.40000000  0.66666667
  0.06666667  0.40000000  0.73333333
  0.06666667  0.40000000  0.80000000
  0.06666667  0.40000000  0.86666667
  0.06666667  0.40000000  0.93333333
  0.06666667  0.46666667  0.00000000
  0.06666667  0.46666667  0.06666667
  0.06666667  0.46666667  0.13333333
  0.06666667  0.46666667  0.20000000
  0.06666667  0.46666667  0.26666667
  0.06666667  0.46666667  0.33333333
  0.06666667  0.46666667  0.40000000
  0.06666667  0.46666667  0.46666667
  0.06666667  0.46666667  0.53333333
  0.06666667  0.46666667  0.60000000
  0.06666667  0.46666667  0.66666667
  0.06666667  0.46666667  0.73333333
  0.06666667  0.46666667  0.80000000
  0.06666667  0.46666667  0.86666667
  0.06666667  0.46666667  0.93333333
  0.06666667  0.53333333  0.00000000
  0.06666667  0.53333333  0.06666667
  0.06666667  0.53333333  0.13333333
  0.06666667  0.53333333  0.20000000
  0.06666667  0.53333333  0.26666667
  0.06666667  0.53333333  0.33333333
  0.06666667  0.53333333  0.40000000
  0.06666667  0.53333333  0.46666667
  0.06666667  0.53333333  0.53333333
  0.06666667  0.53333333  0.60000000
  0.06666667  0.53333333  0.66666667
  0.06666667  0.53333333  0.73333333
  0.06666667  0.53333333  0.80000000
  0.06666667  0.53333333  0.86666667
  0.06666667  0.53333333  0.93333333
  0.06666667  0.60000000  0.00000000
  0.06666667  0.60000000  0.06666667
  0.06666667  0.60000000  0.13333333
  0.06666667  0.60000000  0.20000000
  0.06666667  0.60000000  0.26666667
  0.06666667  0.60000000  0.33333333
  0.06666667  0.60000000  0.40000000
  0.06666667  0.60000000  0.46666667
  0.06666667  0.60000000  0.53333333
  0.06666667  0.60000000  0.60000000
  0.06666667  0.60000000  0.66666667
  0.06666667  0.60000000  0.73333333
  0.06666667  0.60000000  0.80000000
  0.06666667  0.60000000  0.86666667
  0.06666667  0.60000000  0.93333333
  0.06666667  0.66666667  0.00000000
  0.06666667  0.66666667  0.06666667
  0.06666667  0.66666667  0.13333333
  0.06666667  0.66666667  0.20000000
  0.06666667  0.66666667  0.26666667
  0.06666667  0.66666667  0.33333333
  0.06666667  0.66666667  0.40000000
  0.06666667  0.66666667  0.46666667
  0.06666667  0.66666667  0.53333333
  0.06666667  0.66666667  0.60000000
  0.06666667  0.66666667  0.66666667
  0.06666667  0.66666667  0.73333333
  0.06666667  0.66666667  0.80000000
  0.06666667  0.66666667  0.86666667
  0.06666667  0.66666667  0.93333333
  0.06666667  0.73333333  0.00000000
  0.06666667  0.73333333  0.06666667
  0.06666667  0.73333333  0.13333333
  0.06666667  0.73333333  0.20000000
  0.06666667  0.73333333  0.26666667
  0.06666667  0.73333333  0.33333333
  0.06666667  0.73333333  0.40000000
  0.06666667  0.73333333  0.46666667
  0.06666667  0.73333333  0.53333333
  0.06666667  0.73333333  0.60000000
  0.06666667  0.73333333  0.66666667
  0.06666667  0.73333333  0.73333333
  0.06666667  0.73333333  0.80000000
  0.06666667  0.73333333  0.86666667
  0.06666667  0.73333333  0.93333333
  0.06666667  0.80000000  0.00000000
  0.06666667  0.80000000  0.06666667
  0.06666667  0.80000000  0.13333333
  0.06666667  0.80000000  0.20000000
  0.06666667  0.80000000  0.26666667
  0.06666667  0.80000000  0.33333333
  0.06666667  0.80000000  0.40000000
  0.06666667  0.80000000  0.46666667
  0.06666667  0.80000000  0.53333333
  0.06666667  0.80000000  0.60000000
  0.06666667  0.80000000  0.66666667
  0.06666667  0.80000000  0.73333333
  0.06666667  0.80000000  0.80000000
  0.06666667  0.80000000  0.86666667
  0.06666667  0.80000000  0.93333333
  0.06666667  0.86666667  0.00000000
  0.06666667  0.86666667  0.06666667
  0.06666667  0.86666667  0.13333333
  0.06666667  0.86666667  0.20000000
  0.06666667  0.86666667  0.26666667
  0.06666667  0.86666667  0.33333333
  0.06666667  0.86666667  0.40000000
  0.06666667  0.86666667  0.46666667
  0.06666667  0.86666667  0.53333333
  0.06666667  0.86666667  0.60000000
  0.06666667  0.86666667  0.66666667
  0.06666667  0.86666667  0.73333333
  0.06666667  0.86666667  0.80000000
  0.06666667  0.86666667  0.86666667
  0.06666667  0.86666667  0.93333333
  0.06666667  0.93333333  0.00000000
  0.06666667  0.93333333  0.06666667
  0.06666667  0.93333333  0.13333333
  0.06666667  0.93333333  0.20000000
  0.06666667  0.93333333  0.26666667
  0.06666667  0.93333333  0.33333333
  0.06666667  0.93333333  0.40000000
  0.06666667  0.93333333  0.46666667
  0.06666667  0.93333333  0.53333333
  0.06666667  0.93333333  0.60000000
  0.06666667  0.93333333  0.66666667
  0.06666667  0.93333333  0.73333333
  0.06666667  0.93333333  0.80000000
  0.06666667  0.93333333  0.86666667
  0.06666667  0.93333333  0.93333333
  0.13333333  0.00000000  0.00000000
  0.13333333  0.00000000  0.06666667
  0.13333333  0.00000000  0.13333333
  0.13333333  0.00000000  0.20000000
  0.13333333  0.00000000  0.26666667
  0.13333333  0.00000000  0.33333333
  0.13333333  0.00000000  0.40000000
  0.13333333  0.00000000  0.46666667
  0.13333333  0.00000000  0.53333333
  0.13333333  0.00000000  0.60000000
  0.13333333  0.00000000  0.66666667
  0.13333333  0.00000000  0.73333333
  0.13333333  0.00000000  0.80000000
  0.13333333  0.00000000  0.86666667
  0.13333333  0.00000000  0.93333333
  0.13333333  0.06666667  0.00000000
  0.13333333  0.06666667  0.06666667
  0.13333333  0.06666667  0.13333333
  0.13333333  0.06666667  0.20000000
  0.13333333  0.06666667  0.26666667
  0.13333333  0.06666667  0.33333333
  0.13333333  0.06666667  0.40000000
  0.13333333  0.06666667  0.46666667
  0.13333333  0.06666667  0.53333333
  0.13333333  0.06666667  0.60000000
  0.13333333  0.06666667  0.66666667
  0.13333333  0.06666667  0.73333333
  0.13333333  0.06666667  0.80000000
  0.13333333  0.06666667  0.86666667
  0.13333333  0.06666667  0.93333333
  0.13333333  0.13333333  0.00000000
  0.13333333  0.13333333  0.06666667
  0.13333333  0.13333333  0.13333333
  0.13333333  0.13333333  0.20000000
  0.13333333  0.13333333  0.26666667
  0.13333333  0.13333333  0.33333333
  0.13333333  0.13333333  0.40000000
  0.13333333  0.13333333  0.46666667
  0.13333333  0.13333333  0.53333333
  0.13333333  0.13333333  0.60000000
  0.13333333  0.13333333  0.66666667
  0.13333333  0.13333333  0.73333333
  0.13333333  0.13333333  0.80000000
  0.13333333  0.13333333  0.86666667
  0.13333333  0.13333333  0.93333333
  0.13333333  0.20000000  0.00000000
  0.13333333  0.20000000  0.06666667
  0.13333333  0.20000000  0.13333333
  0.13333333  0.20000000  0.20000000
  0.13333333  0.20000000  0.26666667
  0.13333333  0.20000000  0.33333333
  0.13333333  0.20000000  0.40000000
  0.13333333  0.20000000  0.46666667
  0.13333333  0.20000000  0.53333333
  0.13333333  0.20000000  0.60000000
  0.13333333  0.20000000  0.66666667
  0.13333333  0.20000000  0.73333333
  0.13333333  0.20000000  0.80000000
  0.13333333  0.20000000  0.86666667
  0.13333333  0.20000000  0.93333333
  0.13333333  0.26666667  0.00000000
  0.13333333  0.26666667  0.06666667
  0.13333333  0.26666667  0.13333333
  0.13333333  0.26666667  0.20000000
  0.13333333  0.26666667  0.26666667
  0.13333333  0.26666667  0.33333333
  0.13333333  0.26666667  0.40000000
  0.13333333  0.26666667  0.46666667
  0.13333333  0.26666667  0.53333333
  0.13333333  0.26666667  0.60000000
  0.13333333  0.26666667  0.66666667
  0.13333333  0.26666667  0.73333333
  0.13333333  0.26666667  0.80000000
  0.13333333  0.26666667  0.86666667
  0.13333333  0.26666667  0.93333333
  0.13333333  0.33333333  0.00000000
  0.13333333  0.33333333  0.06666667
  0.13333333  0.33333333  0.13333333
  0.13333333  0.33333333  0.20000000
  0.13333333  0.33333333  0.26666667
  0.13333333  0.33333333  0.33333333
  0.13333333  0.33333333  0.40000000
  0.13333333  0.33333333  0.46666667
  0.13333333  0.33333333  0.53333333
  0.13333333  0.33333333  0.60000000
  0.13333333  0.33333333  0.66666667
  0.13333333  0.33333333  0.73333333
  0.13333333  0.33333333  0.80000000
  0.13333333  0.33333333  0.86666667
  0.13333333  0.33333333  0.93333333
  0.13333333  0.40000000  0.00000000
  0.13333333  0.40000000  0.06666667
  0.13333333  0.40000000  0.13333333
  0.13333333  0.40000000  0.20000000
  0.13333333  0.40000000  0.26666667
  0.13333333  0.40000000  0.33333333
  0.13333333  0.40000000  0.40000000
  0.13333333  0.40000000  0.46666667
  0.13333333  0.40000000  0.53333333
  0.13333333  0.40000000  0.60000000
  0.13333333  0.40000000  0.66666667
  0.13333333  0.40000000  0.73333333
  0.13333333  0.40000000  0.80000000
  0.13333333  0.40000000  0.86666667
  0.13333333  0.40000000  0.93333333
  0.13333333  0.46666667  0.00000000
  0.13333333  0.46666667  0.06666667
  0.13333333  0.46666667  0.13333333
  0.13333333  0.46666667  0.20000000
  0.13333333  0.46666667  0.26666667
  0.13333333  0.46666667  0.33333333
  0.13333333  0.46666667  0.40000000
  0.13333333  0.46666667  0.46666667
  0.13333333  0.46666667  0.53333333
  0.13333333  0.46666667  0.60000000
  0.13333333  0.46666667  0.66666667
  0.13333333  0.46666667  0.73333333
  0.13333333  0.46666667  0.80000000
  0.13333333  0.46666667  0.86666667
  0.13333333  0.46666667  0.93333333
  0.13333333  0.53333333  0.00000000
  0.13333333  0.53333333  0.06666667
  0.13333333  0.53333333  0.13333333
  0.13333333  0.53333333  0.20000000
  0.13333333  0.53333333  0.26666667
  0.13333333  0.53333333  0.33333333
  0.13333333  0.53333333  0.40000000
  0.13333333  0.53333333  0.46666667
  0.13333333  0.53333333  0.53333333
  0.13333333  0.53333333  0.60000000
  0.13333333  0.53333333  0.66666667
  0.13333333  0.53333333  0.73333333
  0.13333333  0.53333333  0.80000000
  0.13333333  0.53333333  0.86666667
  0.13333333  0.53333333  0.93333333
  0.13333333  0.60000000  0.00000000
  0.13333333  0.60000000  0.06666667
  0.13333333  0.60000000  0.13333333
  0.13333333  0.60000000  0.20000000
  0.13333333  0.60000000  0.26666667
  0.13333333  0.60000000  0.33333333
  0.13333333  0.60000000  0.40000000
  0.13333333  0.60000000  0.46666667
  0.13333333  0.60000000  0.53333333
  0.13333333  0.60000000  0.60000000
  0.13333333  0.60000000  0.66666667
  0.13333333  0.60000000  0.73333333
  0.13333333  0.60000000  0.80000000
  0.13333333  0.60000000  0.86666667
  0.13333333  0.60000000  0.93333333
  0.13333333  0.66666667  0.00000000
  0.13333333  0.66666667  0.06666667
  0.13333333  0.66666667  0.13333333
  0.13333333  0.66666667  0.20000000
  0.13333333  0.66666667  0.26666667
  0.13333333  0.66666667  0.33333333
  0.13333333  0.66666667  0.40000000
  0.13333333  0.66666667  0.46666667
  0.13333333  0.66666667  0.53333333
  0.13333333  0.66666667  0.60000000
  0.13333333  0.66666667  0.66666667
  0.13333333  0.66666667  0.73333333
  0.13333333  0.66666667  0.80000000
  0.13333333  0.66666667  0.86666667
  0.13333333  0.66666667  0.93333333
  0.13333333  0.73333333  0.00000000
  0.13333333  0.73333333  0.06666667
  0.13333333  0.73333333  0.13333333
  0.13333333  0.73333333  0.20000000
  0.13333333  0.73333333  0.26666667
  0.13333333  0.73333333  0.33333333
  0.13333333  0.73333333  0.40000000
  0.13333333  0.73333333  0.46666667
  0.13333333  0.73333333  0.53333333
  0.13333333  0.73333333  0.60000000
  0.13333333  0.73333333  0.66666667
  0.13333333  0.73333333  0.73333333
  0.13333333  0.73333333  0.80000000
  0.13333333  0.73333333  0.86666667
  0.13333333  0.73333333  0.93333333
  0.13333333  0.80000000  0.00000000
  0.13333333  0.80000000  0.06666667
  0.13333333  0.80000000  0.13333333
  0.13333333  0.80000000  0.20000000
  0.13333333  0.80000000  0.26666667
  0.13333333  0.80000000  0.33333333
  0.13333333  0.80000000  0.40000000
  0.13333333  0.80000000  0.46666667
  0.13333333  0.80000000  0.53333333
  0.13333333  0.80000000  0.60000000
  0.13333333  0.80000000  0.66666667
  0.13333333  0.80000000  0.73333333
  0.13333333  0.80000000  0.80000000
  0.13333333  0.80000000  0.86666667
  0.13333333  0.80000000  0.93333333
  0.13333333  0.86666667  0.00000000
  0.13333333  0.86666667  0.06666667
  0.13333333  0.86666667  0.13333333
  0.13333333  0.86666667  0.20000000
  0.13333333  0.86666667  0.26666667
  0.13333333  0.86666667  0.33333333
  0.13333333  0.86666667  0.40000000
  0.13333333  0.86666667  0.46666667
  0.13333333  0.86666667  0.53333333
  0.13333333  0.86666667  0.60000000
  0.13333333  0.86666667  0.66666667
  0.13333333  0.86666667  0.73333333
  0.13333333  0.86666667  0.80000000
  0.13333333  0.86666667  0.86666667
  0.13333333  0.86666667  0.93333333
  0.13333333  0.93333333  0.00000000
  0.13333333  0.93333333  0.06666667
  0.13333333  0.93333333  0.13333333
  0.13333333  0.93333333  0.20000000
  0.13333333  0.93333333  0.26666667
  0.13333333  0.93333333  0.33333333
  0.13333333  0.93333333  0.40000000
  0.13333333  0.93333333  0.46666667
  0.13333333  0.93333333  0.53333333
  0.13333333  0.93333333  0.60000000
  0.13333333  0.93333333  0.66666667
  0.13333333  0.93333333  0.73333333
  0.13333333  0.93333333  0.80000000
  0.13333333  0.93333333  0.86666667
  0.13333333  0.93333333  0.93333333
  0.20000000  0.00000000  0.00000000
  0.20000000  0.00000000  0.06666667
  0.20000000  0.00000000  0.13333333
  0.20000000  0.00000000  0.20000000
  0.20000000  0.00000000  0.26666667
  0.20000000  0.00000000  0.33333333
  0.20000000  0.00000000  0.40000000
  0.20000000  0.00000000  0.46666667
  0.20000000  0.00000000  0.53333333
  0.20000000  0.00000000  0.60000000
  0.20000000  0.00000000  0.66666667
  0.20000000  0.00000000  0.73333333
  0.20000000  0.00000000  0.80000000
  0.20000000  0.00000000  0.86666667
  0.20000000  0.00000000  0.93333333
  0.20000000  0.06666667  0.00000000
  0.20000000  0.06666667  0.06666667
  0.20000000  0.06666667  0.13333333
  0.20000000  0.06666667  0.20000000
  0.20000000  0.06666667  0.26666667
  0.20000000  0.06666667  0.33333333
  0.20000000  0.06666667  0.40000000
  0.20000000  0.06666667  0.46666667
  0.20000000  0.06666667  0.53333333
  0.20000000  0.06666667  0.60000000
  0.20000000  0.06666667  0.66666667
  0.20000000  0.06666667  0.73333333
  0.20000000  0.06666667  0.80000000
  0.20000000  0.06666667  0.86666667
  0.20000000  0.06666667  0.93333333
  0.20000000  0.13333333  0.00000000
  0.20000000  0.13333333  0.06666667
  0.20000000  0.13333333  0.13333333
  0.20000000  0.13333333  0.20000000
  0.20000000  0.13333333  0.26666667
  0.20000000  0.13333333  0.33333333
  0.20000000  0.13333333  0.40000000
  0.20000000  0.13333333  0.46666667
  0.20000000  0.13333333  0.53333333
  0.20000000  0.13333333  0.60000000
  0.20000000  0.13333333  0.66666667
  0.20000000  0.13333333  0.73333333
  0.20000000  0.13333333  0.80000000
  0.20000000  0.13333333  0.86666667
  0.20000000  0.13333333  0.93333333
  0.20000000  0.20000000  0.00000000
  0.20000000  0.20000000  0.06666667
  0.20000000  0.20000000  0.13333333
  0.20000000  0.20000000  0.20000000
  0.20000000  0.20000000  0.26666667
  0.20000000  0.20000000  0.33333333
  0.20000000  0.20000000  0.40000000
  0.20000000  0.20000000  0.46666667
  0.20000000  0.20000000  0.53333333
  0.20000000  0.20000000  0.60000000
  0.20000000  0.20000000  0.66666667
  0.20000000  0.20000000  0.73333333
  0.20000000  0.20000000  0.80000000
  0.20000000  0.20000000  0.86666667
  0.20000000  0.20000000  0.93333333
  0.20000000  0.26666667  0.00000000
  0.20000000  0.26666667  0.06666667
  0.20000000  0.26666667  0.13333333
  0.20000000  0.26666667  0.20000000
  0.20000000  0.26666667  0.26666667
  0.20000000  0.26666667  0.33333333
  0.20000000  0.26666667  0.40000000
  0.20000000  0.26666667  0.46666667
  0.20000000  0.26666667  0.53333333
  0.20000000  0.26666667  0.60000000
  0.20000000  0.26666667  0.66666667
  0.20000000  0.26666667  0.73333333
  0.20000000  0.26666667  0.80000000
  0.20000000  0.26666667  0.86666667
  0.20000000  0.26666667  0.93333333
  0.20000000  0.33333333  0.00000000
  0.20000000  0.33333333  0.06666667
  0.20000000  0.33333333  0.13333333
  0.20000000  0.33333333  0.20000000